c sat-poset-nomax-b 12, minus "~3.1 ~1.6 3.6"
c file created by SAT-TO-DIMACS Wed Jul  8 08:17:37 2015
c 12.11 -> 144
c 12.10 -> 143
c 12.9 -> 142
c 12.8 -> 141
c 12.7 -> 140
c 12.6 -> 139
c 12.5 -> 138
c 12.4 -> 137
c 12.3 -> 136
c 12.2 -> 135
c 12.1 -> 134
c 11.10 -> 133
c 11.9 -> 132
c 11.8 -> 131
c 11.7 -> 130
c 11.6 -> 129
c 11.5 -> 128
c 11.4 -> 127
c 11.3 -> 126
c 11.2 -> 125
c 11.1 -> 124
c 10.9 -> 123
c 10.8 -> 122
c 10.7 -> 121
c 10.6 -> 120
c 10.5 -> 119
c 10.4 -> 118
c 10.3 -> 117
c 10.2 -> 116
c 10.1 -> 115
c 9.8 -> 114
c 9.7 -> 113
c 9.6 -> 112
c 9.5 -> 111
c 9.4 -> 110
c 9.3 -> 109
c 9.2 -> 108
c 9.1 -> 107
c 8.7 -> 106
c 8.6 -> 105
c 8.5 -> 104
c 8.4 -> 103
c 8.3 -> 102
c 8.2 -> 101
c 8.1 -> 100
c 7.6 -> 99
c 7.5 -> 98
c 7.4 -> 97
c 7.3 -> 96
c 7.2 -> 95
c 7.1 -> 94
c 6.5 -> 93
c 6.4 -> 92
c 6.3 -> 91
c 6.2 -> 90
c 6.1 -> 89
c 5.4 -> 88
c 5.3 -> 87
c 5.2 -> 86
c 5.1 -> 85
c 4.3 -> 84
c 4.2 -> 83
c 4.1 -> 82
c 3.2 -> 81
c 3.1 -> 80
c 2.1 -> 79
c 11.12 -> 78
c 10.12 -> 77
c 10.11 -> 76
c 9.12 -> 75
c 9.11 -> 74
c 9.10 -> 73
c 8.12 -> 72
c 8.11 -> 71
c 8.10 -> 70
c 8.9 -> 69
c 7.12 -> 68
c 7.11 -> 67
c 7.10 -> 66
c 7.9 -> 65
c 7.8 -> 64
c 6.12 -> 63
c 6.11 -> 62
c 6.10 -> 61
c 6.9 -> 60
c 6.8 -> 59
c 6.7 -> 58
c 5.12 -> 57
c 5.11 -> 56
c 5.10 -> 55
c 5.9 -> 54
c 5.8 -> 53
c 5.7 -> 52
c 5.6 -> 51
c 4.12 -> 50
c 4.11 -> 49
c 4.10 -> 48
c 4.9 -> 47
c 4.8 -> 46
c 4.7 -> 45
c 4.6 -> 44
c 4.5 -> 43
c 3.12 -> 42
c 3.11 -> 41
c 3.10 -> 40
c 3.9 -> 39
c 3.8 -> 38
c 3.7 -> 37
c 3.6 -> 36
c 3.5 -> 35
c 3.4 -> 34
c 1.12 -> 33
c 2.12 -> 32
c 1.11 -> 31
c 2.11 -> 30
c 1.10 -> 29
c 2.10 -> 28
c 1.9 -> 27
c 2.9 -> 26
c 1.8 -> 25
c 2.8 -> 24
c 1.7 -> 23
c 2.7 -> 22
c 1.6 -> 21
c 2.6 -> 20
c 1.5 -> 19
c 2.5 -> 18
c 1.4 -> 17
c 2.4 -> 16
c 1.3 -> 15
c 2.3 -> 14
c 1.2 -> 13
c 12.12 -> 12
c 11.11 -> 11
c 10.10 -> 10
c 9.9 -> 9
c 8.8 -> 8
c 7.7 -> 7
c 6.6 -> 6
c 5.5 -> 5
c 4.4 -> 4
c 3.3 -> 3
c 2.2 -> 2
c 1.1 -> 1
p cnf 144 529
 12 144 143 142 141 140 139 138 137 136 135 134 0
 78 11 133 132 131 130 129 128 127 126 125 124 0
 77 76 10 123 122 121 120 119 118 117 116 115 0
 75 74 73 9 114 113 112 111 110 109 108 107 0
 72 71 70 69 8 106 105 104 103 102 101 100 0
 68 67 66 65 64 7 99 98 97 96 95 94 0
 63 62 61 60 59 58 6 93 92 91 90 89 0
 57 56 55 54 53 52 51 5 88 87 86 85 0
 50 49 48 47 46 45 44 43 4 84 83 82 0
 42 41 40 39 38 37 36 35 34 3 81 80 0
 32 30 28 26 24 22 20 18 16 14 2 79 0
 33 31 29 27 25 23 21 19 17 15 13 1 0
 12 -78 -144 0
 12 -77 -143 0
 12 -75 -142 0
 12 -72 -141 0
 12 -68 -140 0
 12 -63 -139 0
 12 -57 -138 0
 12 -50 -137 0
 12 -42 -136 0
 12 -32 -135 0
 12 -33 -134 0
 78 -77 -133 0
 11 -76 -133 0
 78 -75 -132 0
 11 -74 -132 0
 78 -72 -131 0
 11 -71 -131 0
 78 -68 -130 0
 11 -67 -130 0
 78 -63 -129 0
 11 -62 -129 0
 78 -57 -128 0
 11 -56 -128 0
 78 -50 -127 0
 11 -49 -127 0
 78 -42 -126 0
 11 -41 -126 0
 78 -32 -125 0
 11 -30 -125 0
 78 -33 -124 0
 11 -31 -124 0
 77 -78 -76 0
 77 -75 -123 0
 76 -74 -123 0
 10 -73 -123 0
 77 -72 -122 0
 76 -71 -122 0
 10 -70 -122 0
 77 -68 -121 0
 76 -67 -121 0
 10 -66 -121 0
 77 -63 -120 0
 76 -62 -120 0
 10 -61 -120 0
 77 -57 -119 0
 76 -56 -119 0
 10 -55 -119 0
 77 -50 -118 0
 76 -49 -118 0
 10 -48 -118 0
 77 -42 -117 0
 76 -41 -117 0
 10 -40 -117 0
 77 -32 -116 0
 76 -30 -116 0
 10 -28 -116 0
 77 -33 -115 0
 76 -31 -115 0
 10 -29 -115 0
 75 -78 -74 0
 75 -77 -73 0
 74 -76 -73 0
 75 -72 -114 0
 74 -71 -114 0
 73 -70 -114 0
 9 -69 -114 0
 75 -68 -113 0
 74 -67 -113 0
 73 -66 -113 0
 9 -65 -113 0
 75 -63 -112 0
 74 -62 -112 0
 73 -61 -112 0
 9 -60 -112 0
 75 -57 -111 0
 74 -56 -111 0
 73 -55 -111 0
 9 -54 -111 0
 75 -50 -110 0
 74 -49 -110 0
 73 -48 -110 0
 9 -47 -110 0
 75 -42 -109 0
 74 -41 -109 0
 73 -40 -109 0
 9 -39 -109 0
 75 -32 -108 0
 74 -30 -108 0
 73 -28 -108 0
 9 -26 -108 0
 75 -33 -107 0
 74 -31 -107 0
 73 -29 -107 0
 9 -27 -107 0
 72 -78 -71 0
 72 -77 -70 0
 71 -76 -70 0
 72 -75 -69 0
 71 -74 -69 0
 70 -73 -69 0
 72 -68 -106 0
 71 -67 -106 0
 70 -66 -106 0
 69 -65 -106 0
 8 -64 -106 0
 72 -63 -105 0
 71 -62 -105 0
 70 -61 -105 0
 69 -60 -105 0
 8 -59 -105 0
 72 -57 -104 0
 71 -56 -104 0
 70 -55 -104 0
 69 -54 -104 0
 8 -53 -104 0
 72 -50 -103 0
 71 -49 -103 0
 70 -48 -103 0
 69 -47 -103 0
 8 -46 -103 0
 72 -42 -102 0
 71 -41 -102 0
 70 -40 -102 0
 69 -39 -102 0
 8 -38 -102 0
 72 -32 -101 0
 71 -30 -101 0
 70 -28 -101 0
 69 -26 -101 0
 8 -24 -101 0
 72 -33 -100 0
 71 -31 -100 0
 70 -29 -100 0
 69 -27 -100 0
 8 -25 -100 0
 68 -78 -67 0
 68 -77 -66 0
 67 -76 -66 0
 68 -75 -65 0
 67 -74 -65 0
 66 -73 -65 0
 68 -72 -64 0
 67 -71 -64 0
 66 -70 -64 0
 65 -69 -64 0
 68 -63 -99 0
 67 -62 -99 0
 66 -61 -99 0
 65 -60 -99 0
 64 -59 -99 0
 7 -58 -99 0
 68 -57 -98 0
 67 -56 -98 0
 66 -55 -98 0
 65 -54 -98 0
 64 -53 -98 0
 7 -52 -98 0
 68 -50 -97 0
 67 -49 -97 0
 66 -48 -97 0
 65 -47 -97 0
 64 -46 -97 0
 7 -45 -97 0
 68 -42 -96 0
 67 -41 -96 0
 66 -40 -96 0
 65 -39 -96 0
 64 -38 -96 0
 7 -37 -96 0
 68 -32 -95 0
 67 -30 -95 0
 66 -28 -95 0
 65 -26 -95 0
 64 -24 -95 0
 7 -22 -95 0
 68 -33 -94 0
 67 -31 -94 0
 66 -29 -94 0
 65 -27 -94 0
 64 -25 -94 0
 7 -23 -94 0
 63 -78 -62 0
 63 -77 -61 0
 62 -76 -61 0
 63 -75 -60 0
 62 -74 -60 0
 61 -73 -60 0
 63 -72 -59 0
 62 -71 -59 0
 61 -70 -59 0
 60 -69 -59 0
 63 -68 -58 0
 62 -67 -58 0
 61 -66 -58 0
 60 -65 -58 0
 59 -64 -58 0
 63 -57 -93 0
 62 -56 -93 0
 61 -55 -93 0
 60 -54 -93 0
 59 -53 -93 0
 58 -52 -93 0
 6 -51 -93 0
 63 -50 -92 0
 62 -49 -92 0
 61 -48 -92 0
 60 -47 -92 0
 59 -46 -92 0
 58 -45 -92 0
 6 -44 -92 0
 63 -42 -91 0
 62 -41 -91 0
 61 -40 -91 0
 60 -39 -91 0
 59 -38 -91 0
 58 -37 -91 0
 6 -36 -91 0
 63 -32 -90 0
 62 -30 -90 0
 61 -28 -90 0
 60 -26 -90 0
 59 -24 -90 0
 58 -22 -90 0
 6 -20 -90 0
 63 -33 -89 0
 62 -31 -89 0
 61 -29 -89 0
 60 -27 -89 0
 59 -25 -89 0
 58 -23 -89 0
 6 -21 -89 0
 57 -78 -56 0
 57 -77 -55 0
 56 -76 -55 0
 57 -75 -54 0
 56 -74 -54 0
 55 -73 -54 0
 57 -72 -53 0
 56 -71 -53 0
 55 -70 -53 0
 54 -69 -53 0
 57 -68 -52 0
 56 -67 -52 0
 55 -66 -52 0
 54 -65 -52 0
 53 -64 -52 0
 57 -63 -51 0
 56 -62 -51 0
 55 -61 -51 0
 54 -60 -51 0
 53 -59 -51 0
 52 -58 -51 0
 57 -50 -88 0
 56 -49 -88 0
 55 -48 -88 0
 54 -47 -88 0
 53 -46 -88 0
 52 -45 -88 0
 51 -44 -88 0
 5 -43 -88 0
 57 -42 -87 0
 56 -41 -87 0
 55 -40 -87 0
 54 -39 -87 0
 53 -38 -87 0
 52 -37 -87 0
 51 -36 -87 0
 5 -35 -87 0
 57 -32 -86 0
 56 -30 -86 0
 55 -28 -86 0
 54 -26 -86 0
 53 -24 -86 0
 52 -22 -86 0
 51 -20 -86 0
 5 -18 -86 0
 57 -33 -85 0
 56 -31 -85 0
 55 -29 -85 0
 54 -27 -85 0
 53 -25 -85 0
 52 -23 -85 0
 51 -21 -85 0
 5 -19 -85 0
 50 -78 -49 0
 50 -77 -48 0
 49 -76 -48 0
 50 -75 -47 0
 49 -74 -47 0
 48 -73 -47 0
 50 -72 -46 0
 49 -71 -46 0
 48 -70 -46 0
 47 -69 -46 0
 50 -68 -45 0
 49 -67 -45 0
 48 -66 -45 0
 47 -65 -45 0
 46 -64 -45 0
 50 -63 -44 0
 49 -62 -44 0
 48 -61 -44 0
 47 -60 -44 0
 46 -59 -44 0
 45 -58 -44 0
 50 -57 -43 0
 49 -56 -43 0
 48 -55 -43 0
 47 -54 -43 0
 46 -53 -43 0
 45 -52 -43 0
 44 -51 -43 0
 50 -42 -84 0
 49 -41 -84 0
 48 -40 -84 0
 47 -39 -84 0
 46 -38 -84 0
 45 -37 -84 0
 44 -36 -84 0
 43 -35 -84 0
 4 -34 -84 0
 50 -32 -83 0
 49 -30 -83 0
 48 -28 -83 0
 47 -26 -83 0
 46 -24 -83 0
 45 -22 -83 0
 44 -20 -83 0
 43 -18 -83 0
 4 -16 -83 0
 50 -33 -82 0
 49 -31 -82 0
 48 -29 -82 0
 47 -27 -82 0
 46 -25 -82 0
 45 -23 -82 0
 44 -21 -82 0
 43 -19 -82 0
 4 -17 -82 0
 42 -78 -41 0
 42 -77 -40 0
 41 -76 -40 0
 42 -75 -39 0
 41 -74 -39 0
 40 -73 -39 0
 42 -72 -38 0
 41 -71 -38 0
 40 -70 -38 0
 39 -69 -38 0
 42 -68 -37 0
 41 -67 -37 0
 40 -66 -37 0
 39 -65 -37 0
 38 -64 -37 0
 42 -63 -36 0
 41 -62 -36 0
 40 -61 -36 0
 39 -60 -36 0
 38 -59 -36 0
 37 -58 -36 0
 42 -57 -35 0
 41 -56 -35 0
 40 -55 -35 0
 39 -54 -35 0
 38 -53 -35 0
 37 -52 -35 0
 36 -51 -35 0
 42 -50 -34 0
 41 -49 -34 0
 40 -48 -34 0
 39 -47 -34 0
 38 -46 -34 0
 37 -45 -34 0
 36 -44 -34 0
 35 -43 -34 0
 42 -32 -81 0
 41 -30 -81 0
 40 -28 -81 0
 39 -26 -81 0
 38 -24 -81 0
 37 -22 -81 0
 36 -20 -81 0
 35 -18 -81 0
 34 -16 -81 0
 3 -14 -81 0
 42 -33 -80 0
 41 -31 -80 0
 40 -29 -80 0
 39 -27 -80 0
 38 -25 -80 0
 37 -23 -80 0
 35 -19 -80 0
 34 -17 -80 0
 3 -15 -80 0
 32 -78 -30 0
 32 -77 -28 0
 30 -76 -28 0
 32 -75 -26 0
 30 -74 -26 0
 28 -73 -26 0
 32 -72 -24 0
 30 -71 -24 0
 28 -70 -24 0
 26 -69 -24 0
 32 -68 -22 0
 30 -67 -22 0
 28 -66 -22 0
 26 -65 -22 0
 24 -64 -22 0
 32 -63 -20 0
 30 -62 -20 0
 28 -61 -20 0
 26 -60 -20 0
 24 -59 -20 0
 22 -58 -20 0
 32 -57 -18 0
 30 -56 -18 0
 28 -55 -18 0
 26 -54 -18 0
 24 -53 -18 0
 22 -52 -18 0
 20 -51 -18 0
 32 -50 -16 0
 30 -49 -16 0
 28 -48 -16 0
 26 -47 -16 0
 24 -46 -16 0
 22 -45 -16 0
 20 -44 -16 0
 18 -43 -16 0
 32 -42 -14 0
 30 -41 -14 0
 28 -40 -14 0
 26 -39 -14 0
 24 -38 -14 0
 22 -37 -14 0
 20 -36 -14 0
 18 -35 -14 0
 16 -34 -14 0
 32 -33 -79 0
 30 -31 -79 0
 28 -29 -79 0
 26 -27 -79 0
 24 -25 -79 0
 22 -23 -79 0
 20 -21 -79 0
 18 -19 -79 0
 16 -17 -79 0
 14 -15 -79 0
 2 -13 -79 0
 33 -78 -31 0
 33 -77 -29 0
 31 -76 -29 0
 33 -75 -27 0
 31 -74 -27 0
 29 -73 -27 0
 33 -72 -25 0
 31 -71 -25 0
 29 -70 -25 0
 27 -69 -25 0
 33 -68 -23 0
 31 -67 -23 0
 29 -66 -23 0
 27 -65 -23 0
 25 -64 -23 0
 33 -63 -21 0
 31 -62 -21 0
 29 -61 -21 0
 27 -60 -21 0
 25 -59 -21 0
 23 -58 -21 0
 33 -57 -19 0
 31 -56 -19 0
 29 -55 -19 0
 27 -54 -19 0
 25 -53 -19 0
 23 -52 -19 0
 21 -51 -19 0
 33 -50 -17 0
 31 -49 -17 0
 29 -48 -17 0
 27 -47 -17 0
 25 -46 -17 0
 23 -45 -17 0
 21 -44 -17 0
 19 -43 -17 0
 33 -42 -15 0
 31 -41 -15 0
 29 -40 -15 0
 27 -39 -15 0
 25 -38 -15 0
 23 -37 -15 0
 21 -36 -15 0
 19 -35 -15 0
 17 -34 -15 0
 33 -32 -13 0
 31 -30 -13 0
 29 -28 -13 0
 27 -26 -13 0
 25 -24 -13 0
 23 -22 -13 0
 21 -20 -13 0
 19 -18 -13 0
 17 -16 -13 0
 15 -14 -13 0
 -12 0
 -11 0
 -10 0
 -9 0
 -8 0
 -7 0
 -6 0
 -5 0
 -4 0
 -3 0
 -2 0
 -1 0
